
Gurobi 10.0.1 (mac64[arm]) logging started Wed Mar 27 12:48:22 2024

Set parameter LogFile to value "/Users/deniserings/Documents/zib/s-bahn-data/scripts/DeniseMA/processed/BGAS_BKW/original/BGAS_BKW_2024-03-27 12:04_equality.log"
Gurobi Optimizer version 10.0.1 build v10.0.1rc0 (mac64[arm])

CPU model: Apple M2
Thread count: 8 physical cores, 8 logical processors, using up to 8 threads

Optimize a model with 1955 rows, 1012 columns and 6854 nonzeros
Model fingerprint: 0x3cbd9dc5
Variable types: 411 continuous, 601 integer (170 binary)
Coefficient statistics:
  Matrix range     [1e+00, 2e+02]
  Objective range  [1e+00, 4e+02]
  Bounds range     [1e+00, 2e+02]
  RHS range        [1e+00, 5e+02]
Presolve removed 1476 rows and 726 columns
Presolve time: 0.21s
Presolved: 479 rows, 286 columns, 1913 nonzeros
Variable types: 116 continuous, 170 integer (170 binary)
Found heuristic solution: objective 5132.0000000
Found heuristic solution: objective 5090.0000000

Root relaxation: objective 4.540000e+03, 134 iterations, 0.00 seconds (0.00 work units)

    Nodes    |    Current Node    |     Objective Bounds      |     Work
 Expl Unexpl |  Obj  Depth IntInf | Incumbent    BestBd   Gap | It/Node Time

     0     0 4540.00000    0    9 5090.00000 4540.00000  10.8%     -    0s
H    0     0                    5046.0000000 4540.00000  10.0%     -    0s
H    0     0                    5020.0000000 4540.00000  9.56%     -    0s
     0     0 4540.00000    0   22 5020.00000 4540.00000  9.56%     -    0s
H    0     0                    4998.0000000 4540.00000  9.16%     -    0s
     0     0 4540.00000    0   20 4998.00000 4540.00000  9.16%     -    0s
     0     0 4540.00000    0    9 4998.00000 4540.00000  9.16%     -    0s
H    0     0                    4996.0000000 4540.00000  9.13%     -    0s
H    0     0                    4982.0000000 4540.00000  8.87%     -    0s
H    0     0                    4969.0000000 4540.00000  8.63%     -    0s
     0     0 4540.00000    0    9 4969.00000 4540.00000  8.63%     -    0s
     0     0 4540.00000    0    9 4969.00000 4540.00000  8.63%     -    0s
H    0     0                    4967.0000000 4540.00000  8.60%     -    0s
     0     2 4540.00000    0    9 4967.00000 4540.00000  8.60%     -    0s
H   16    23                    4966.0000000 4540.00000  8.58%  18.6    0s
H   22    23                    4965.0000000 4540.00000  8.56%  18.5    0s
H   92    81                    4946.0000000 4540.00000  8.21%  14.2    0s
H  138   121                    4945.0000000 4540.00000  8.19%  13.8    0s
H  211   169                    4915.0000000 4540.00000  7.63%  12.2    0s
H  280   206                    4914.0000000 4540.00000  7.61%  11.8    0s

Cutting planes:
  Learned: 15
  Gomory: 31
  Cover: 7
  Implied bound: 4
  Projected implied bound: 1
  MIR: 19
  StrongCG: 1
  Flow cover: 44
  Zero half: 2
  Network: 4
  Relax-and-lift: 2

Explored 40214 nodes (441919 simplex iterations) in 3.62 seconds (3.02 work units)
Thread count was 8 (of 8 available processors)

Solution count 10: 4914 4914 4915 ... 4982

Optimal solution found (tolerance 1.00e-04)
Best objective 4.914000000000e+03, best bound 4.914000000000e+03, gap 0.0000%

User-callback calls 82980, time in user-callback 0.09 sec

Statistics for modelBGAS_BKW:
  Linear constraint matrix    : 1955 Constrs, 1012 Vars, 6854 NZs
  Variable types              : 411 Continuous,
601 Integer (170 Binary)
  Matrix coefficient range    : [ 1, 200 ]
  Objective coefficient range : [ 1, 388 ]
  Variable bound range        : [ 1, 199 ]
  RHS coefficient range       : [ 1, 549 ]
